************************************************************************
file with basedata            : mm7_.bas
initial value random generator: 1133565214
************************************************************************
projects                      :  1
jobs (incl. supersource/sink ):  12
horizon                       :  75
RESOURCES
  - renewable                 :  2   R
  - nonrenewable              :  2   N
  - doubly constrained        :  0   D
************************************************************************
PROJECT INFORMATION:
pronr.  #jobs rel.date duedate tardcost  MPM-Time
    1     10      0       14        7       14
************************************************************************
PRECEDENCE RELATIONS:
jobnr.    #modes  #successors   successors
   1        1          3           2   3   4
   2        3          2           5   6
   3        3          3           6  10  11
   4        3          3           5   8  11
   5        3          1           7
   6        3          1           7
   7        3          1           9
   8        3          1          10
   9        3          1          12
  10        3          1          12
  11        3          1          12
  12        1          0        
************************************************************************
REQUESTS/DURATIONS:
jobnr. mode duration  R 1  R 2  N 1  N 2
------------------------------------------------------------------------
  1      1     0       0    0    0    0
  2      1     1       6    0    6    6
         2     7       5    0    4    5
         3     7       4    0    5    6
  3      1     4       3    0    8    9
         2     9       3    0    7    8
         3    10       0    4    6    6
  4      1     1       4    0    7   10
         2     1       0    4    7    8
         3     2       4    0    5    6
  5      1     3       0    7    5    7
         2     7       0    7    5    5
         3    10       9    0    4    4
  6      1     3       9    0    5    4
         2     4       9    0    4    3
         3     6       7    0    3    2
  7      1     3       0    6    8    5
         2     5       9    0    7    5
         3    10       6    0    1    5
  8      1     7       0    7    3    8
         2    10       9    0    3    7
         3    10       0    7    3    5
  9      1     4      10    0    5    7
         2     6       0    7    4    5
         3     8       6    0    3    3
 10      1     3       9    0    9   10
         2     5       8    0    7    7
         3     5       9    0    8    5
 11      1     4       0    7    3    6
         2     5       7    0    3    4
         3     7       0    4    2    2
 12      1     0       0    0    0    0
************************************************************************
RESOURCEAVAILABILITIES:
  R 1  R 2  N 1  N 2
   13    4   53   63
************************************************************************
MAXIMAL LAGS:
from  to  type  delay
    1   12   ES      0
    1    2   ES      0
    2   12   ES      0
    1    3   ES      0
    3   12   ES      0
    1    4   ES      0
    4   12   ES      0
    1    5   ES      0
    5   12   ES      0
    1    6   ES      0
    6   12   ES      0
    1    7   ES      0
    7   12   ES      0
    1    8   ES      0
    8   12   ES      0
    1    9   ES      0
    9   12   ES      0
    1   10   ES      0
   10   12   ES      0
    1   11   ES      0
   11   12   ES      0
    1   12   ES      0
    2    5   SS     -7
    2    5   SE      4
    2    5   ES      3
    2    5   EE      9
    2    6   SS      6
    2    6   SE     -4
    2    6   ES     -7
    2    6   EE      7
    3    6   SS      9
    3    6   SE      1
    3    6   ES      5
    3    6   EE      4
    3   10   SS     -8
    3   10   SE      2
    3   10   ES     11
    3   10   EE     12
    3   11   SS      0
    3   11   SE      6
    3   11   ES      9
    3   11   EE      3
    4    5   SS      9
    4    5   SE      8
    4    5   ES    -11
    4    5   EE     -4
    4    8   SS    -11
    4    8   SE      6
    4    8   ES     -1
    4    8   EE     -5
    4   11   SS     10
    4   11   SE     -9
    4   11   ES     -4
    4   11   EE    -10
    5    7   SS      6
    5    7   SE      1
    5    7   ES     -9
    5    7   EE     -1
    6    7   SS      1
    6    7   SE    -11
    6    7   ES      3
    6    7   EE      5
    7    9   SS      8
    7    9   SE     -5
    7    9   ES     -7
    7    9   EE      3
    8   10   SS     -3
    8   10   SE      9
    8   10   ES     10
    8   10   EE      5
************************************************************************
